\ Model qp
\ LP format - for model browsing. Use MPS format to capture full model detail.
Maximize
  IS0 + IS1 + IS2 + IS3 + IS4 + IS5 + IS6 + IS7 + IS8 + IS9 + IS10 + IS11
   + IS12 + IS13 + IS14 + IS15
Subject To
 Predicate-C-0.1: IS0 <= 0
 Predicate-C-1.1: IS1 <= 0
 Predicate-C-2.1: IS2 <= 0
 Predicate-C-3.1: IS3 <= -11.77371999999988
 Predicate-C-4.1: IS4 <= -11.73451999999988
 Predicate-C-5.1: IS5 <= 0
 Predicate-C-6.1: IS6 <= 0
 Predicate-C-7.1: IS7 <= 0
 Predicate-C-8.1: IS8 <= 0
 Predicate-C-9.1: IS9 <= 0
 Predicate-C-10.1: IS10 <= 0
 Predicate-C-11.1: IS11 <= 0
 Predicate-C-12.1: IS12 <= 0
 Predicate-C-13.1: IS13 <= 0
 Predicate-C-14.1: IS14 <= 0
 Predicate-C-15.1: IS15 <= 0
Bounds
 IS0 free
 IS1 free
 IS2 free
 IS3 free
 IS4 free
 IS5 free
 IS6 free
 IS7 free
 IS8 free
 IS9 free
 IS10 free
 IS11 free
 IS12 free
 IS13 free
 IS14 free
 IS15 free
End
